c --- [ banner ] -------------------------------------------------------------
c 
c CaDiCaL SAT Solver
c Copyright (c) 2016-2023 A. Biere, M. Fleury, N. Froleyks, K. Fazekas, F. Pollitt
c 
c Version 1.9.5
c g++ (Ubuntu 11.4.0-1ubuntu1~22.04) 11.4.0 -Wall -Wextra -O3 -DNDEBUG -static
c Thu Mar 7 06:16:21 CET 2024 Linux pc101447 6.5.0-17-generic x86_64
c 
c --- [ limit ] --------------------------------------------------------------
c 
c setting time limit to 3600 seconds real time (due to '-t 3600')
c 
c --- [ parsing input ] ------------------------------------------------------
c 
c reading DIMACS file from '/home/oliveras/SAT-comp-2023//0c9da400944b002f90fd385d4fdab385-DivS_568_11.cnf.sanitized.cnf'
c opening file to read '/home/oliveras/SAT-comp-2023//0c9da400944b002f90fd385d4fdab385-DivS_568_11.cnf.sanitized.cnf'
c found 'p cnf 568 553495' header
c parsed 553495 clauses in 0.58 seconds process time
c 
c --- [ options ] ------------------------------------------------------------
c 
c   --seed=1                       (different from default '0')
c 
c --- [ solving ] ------------------------------------------------------------
c 
c time measured in process time since initialization
c 
c  seconds  reductions  redundant  irredundant
c         MB    restarts       trail      variables
c          level   conflicts       glue       remaining
c 
c *  0.58 68  0 0   0    0    0  0% 0 553495 568 100%
c {  0.79 86  0 0   0    0    0  0% 0 553495 568 100%
c -  0.90 89 262 1   0  300  108 51% 12 553371 568 100%
c }  1.01 93 246 1   0 1002  381 49% 12 553103 568 100%
c [  1.01 93  0 1   0 1002  381  0% 0 553103 568 100%
c O  1.04 94 256 1   0 1004  381 46% 0 553102 568 100%
c -  1.25 127 257 2   0 1345  454 52% 13 552969 568 100%
c -  1.43 127 205 3   0 2913  704 42% 12 552422 568 100%
c ]  1.44 127 206 3   0 3002  734 42% 12 552385 568 100%
c {  1.44 127 246 3   0 3002  734 49% 12 552385 568 100%
c F  1.46 127 246 3   0 3008  736 49% 12 552382 568 100%
c -  1.86 127 237 4  14 5005  854 47% 11 551557 568 100%
c #  1.97 127 232 4  16 6010 1119 46% 11 551127 568 100%
c }  2.08 127 231 4  33 7003 1401 46% 11 550700 568 100%
c [  2.09 127 206 4  33 7003 1401 42% 12 550700 568 100%
c -  2.24 127 207 5  34 7620  981 43% 12 550457 568 100%
c I  2.42 127 197 5  34 10013 1700 41% 11 549501 568 100%
c -  2.58 127 200 6  35 10758 1245 42% 12 549217 568 100%
c -  2.91 127 192 7  35 14411 1621 41% 11 547886 568 100%
c ]  2.95 127 190 7  35 15014 1839 40% 11 547679 568 100%
c 
c  seconds    reductions   redundant   irredundant
c          MB     restarts        trail       variables
c            level    conflicts       glue        remaining
c 
c {  2.95 127 231 7  35 15014 1839 46% 11 547679 568 100%
c B  3.07 127 231 7  35 15016 1839 46% 11 547678 568 100%
c -  3.54 127 225 8  83 18583 1735 45% 11 546148 568 100%
c s  3.73 133 223 8  92 19857 1983 45% 11 545297 568 100%
c v  4.74 133 223 8  92 19857 1983 45% 11 545040 568 100%
c w  4.87 133 223 8  92 19857 1982 45% 11 545040 568 100%
c s  5.12 133 223 8  92 19857 1969 45% 11 544939 568 100%
c }  5.59 133 223 8 119 21021 2300 45% 11 544448 568 100%
c 1  5.59 133 223 8 119 21021 2300 45% 11 544448 568 100%
c 
c --- [ result ] -------------------------------------------------------------
c 
s SATISFIABLE
v -1 -2 -3 -4 5 6 7 8 -9 10 11 -12 -13 -14 15 16 -17 18 -19 -20 21 -22 23 24
v -25 26 -27 28 29 30 -31 32 33 -34 35 36 37 -38 -39 -40 -41 42 -43 -44 45 46
v 47 48 -49 -50 -51 -52 -53 54 55 56 57 58 -59 -60 -61 -62 -63 -64 -65 66 67
v 68 -69 70 71 -72 -73 74 -75 76 77 -78 79 80 -81 82 83 -84 -85 86 87 88 -89
v 90 -91 92 93 -94 95 96 97 -98 99 100 101 -102 103 104 -105 -106 -107 108
v -109 110 -111 -112 -113 -114 -115 116 117 -118 -119 120 121 -122 -123 124
v -125 126 -127 -128 129 130 131 -132 -133 134 135 -136 137 -138 139 140 141
v 142 143 -144 145 146 147 -148 149 150 -151 152 -153 -154 -155 -156 -157 -158
v -159 160 -161 -162 -163 -164 165 166 -167 -168 169 170 171 172 -173 -174 175
v -176 177 -178 -179 180 181 -182 -183 184 185 -186 -187 188 -189 -190 -191
v -192 -193 -194 -195 196 -197 -198 199 200 201 -202 -203 -204 -205 206 -207
v -208 209 -210 211 212 213 214 -215 -216 217 -218 219 220 221 222 -223 224
v -225 -226 227 -228 229 -230 231 -232 233 -234 -235 236 237 -238 239 240 241
v -242 -243 -244 245 -246 -247 -248 249 250 -251 -252 -253 -254 255 -256 -257
v -258 -259 260 261 -262 -263 -264 -265 -266 267 268 269 270 -271 -272 273
v -274 -275 276 277 -278 279 -280 281 282 -283 284 285 286 -287 -288 -289 -290
v 291 292 -293 294 295 -296 -297 -298 -299 300 301 -302 303 304 305 306 -307
v -308 309 310 -311 -312 313 -314 315 -316 317 318 -319 320 -321 -322 -323
v -324 325 326 327 328 -329 330 -331 332 333 334 -335 -336 -337 -338 -339 340
v -341 -342 343 344 -345 346 347 -348 -349 -350 351 -352 -353 -354 355 356 357
v -358 359 360 361 362 363 -364 365 366 367 368 -369 370 371 -372 -373 -374
v 375 -376 377 -378 -379 -380 -381 -382 -383 -384 -385 386 -387 388 389 390
v 391 -392 -393 -394 395 396 397 -398 399 400 401 -402 403 404 -405 -406 -407
v -408 409 -410 -411 412 -413 -414 -415 -416 -417 -418 -419 420 421 422 -423
v 424 425 426 427 -428 429 -430 -431 -432 -433 434 -435 -436 -437 -438 -439
v 440 -441 -442 -443 444 445 -446 447 448 -449 450 -451 452 -453 -454 455 456
v 457 -458 -459 -460 -461 -462 463 -464 465 466 -467 468 469 470 -471 472 473
v 474 -475 -476 477 -478 479 -480 481 -482 483 -484 -485 -486 487 -488 -489
v 490 -491 -492 493 494 -495 496 -497 498 -499 500 -501 502 503 504 -505 506
v -507 508 509 510 511 512 513 514 515 -516 517 -518 -519 -520 -521 -522 -523
v 524 -525 526 -527 -528 -529 530 -531 -532 -533 534 535 -536 -537 538 539
v -540 541 542 543 -544 -545 -546 -547 548 -549 -550 551 -552 553 -554 -555
v 556 557 -558 559 560 561 562 563 564 -565 -566 567 568 0
c 
c --- [ run-time profiling ] -------------------------------------------------
c 
c process time taken by individual solving procedures
c (percentage relative to process time for solving)
c 
c         3.24   64.65% search
c         1.77   35.35% simplify
c         1.60   32.05% unstable
c         1.30   25.94% stable
c         1.10   22.00% vivify
c         0.58   11.60% parse
c         0.35    7.08% elim
c         0.21    4.14% lucky
c         0.13    2.51% walk
c         0.10    2.04% subsume
c         0.08    1.58% ternary
c         0.01    0.18% probe
c   =================================
c         5.01   89.59% solve
c 
c last line shows process time for solving
c (percentage relative to total process time)
c 
c --- [ statistics ] ---------------------------------------------------------
c 
c chronological:             10159        48.33 %  of conflicts
c conflicts:                 21021      4198.40    per second
c decisions:                182115     36372.75    per second
c learned:                    7466        35.52 %  per conflict
c learned_lits:              96385       100.00 %  learned literals
c minimized:                     0         0.00 %  learned literals
c shrunken:                    336         0.35 %  learned literals
c minishrunken:                109         0.11 %  learned literals
c otfs:                      21515       102.35 %  of conflict
c propagations:             264600         0.05 M  per second
c reduced:                    4174        19.86 %  per conflict
c rephased:                      6      3503.50    interval
c restarts:                    119       176.65    interval
c stabilizing:                   2        29.47 %  of conflicts
c subsumed:                  18496         3.29 %  of all clauses
c strengthened:              18256         3.25 %  of all clauses
c trail reuses:                  0         0.00 %  of incremental calls
c vivified:                    694         0.12 %  of all clauses
c walked:                        1     21021.00    interval
c 
c seconds are measured in process time for solving
c 
c --- [ resources ] ----------------------------------------------------------
c 
c total process time since initialization:         5.59    seconds
c total real time since initialization:            5.59    seconds
c maximum resident set size of process:          165.10    MB
c 
c --- [ shutting down ] ------------------------------------------------------
c 
c exit 10
